minimize

-0.250000 v_8XH_3_1 -0.250000 v_8XH_3_3 -0.250000 v_8XH_1_4 + 1.000000 t2 + 1.000000 t3 + 1.000000 t1 -0.250000 v_8XH_3_2 -0.250000 v_8XH_2_1 -0.250000 v_8XH_2_2 -0.250000 v_8XH_2_3

subject to

t1+t3>=1
t2+t3>=1
t2>=1
v_8XH_2_1-t2<=0
v_8XH_3_1-t3<=0
v_8XH_2_1+v_8XH_3_1<=1
v_8XH_2_3-t2<=0
v_8XH_3_3-t3<=0
v_8XH_2_3+v_8XH_3_3<=1
v_8XH_2_2-t2<=0
v_8XH_3_2-t3<=0
v_8XH_2_2+v_8XH_3_2<=1
v_8XH_1_4-t1<=0
v_8XH_1_4<=1

binary

t2 t3 t1 v_8XH_3_1 v_8XH_3_3 v_8XH_3_2 v_8XH_1_4 v_8XH_2_1 v_8XH_2_2 v_8XH_2_3

end